NAME : XML100_1226_16
DIMENSION : 101
NB_CLUSTERS : 3
CLUSTERING_ALG : KMeans
CLUSTERING_PARAMS : k(2)
CLUSTERS
1 0
2 1 3 7 9 11 15 18 19 20 21 22 24 28 29 30 31 32 33 34 36 38 39 41 43 44 45 46 49 50 51 52 53 55 56 58 60 63 64 65 66 69 72 74 75 79 81 82 83 84 86 87 89 90 91 92 94 95 97 98 99 100
3 2 4 5 6 8 10 12 13 14 16 17 23 25 26 27 35 37 40 42 47 48 54 57 59 61 62 67 68 70 71 73 76 77 78 80 85 88 93 96
EOF